%%% static parameters %%%
timespan = 1;
Clients_N = [4000];
Demand_W = [15];
Lt0 = [4];
Lt1 = [4];
SS_ = [0.85];
DS_D = [20];
K = [200];
MA = [500];
HC = [0.05];
%%% dynamic parameters %%%
lost_ratio_sales_ret_th = 5.343169704894935e-05;
lost_ratio_sales_ret_w = 26;
lost_ratio_sales_dis_th = 0.00022248067205402845;
lost_ratio_sales_dis_w = 44;
lost_ratio_sales_fac_th = 0.00045139029041348376;
lost_ratio_sales_fac_w = 69;
stock_customer_MA_mean_relative_th = 0.17305301473270818;
stock_customer_MA_mean_relative_w = 27;
stock_distributor_MA_mean_relative_th = 0.044785789117141483;
stock_distributor_MA_mean_relative_w = 66;
stock_retailer_MA_mean_relative_th = 0.44549564277727516;
stock_retailer_MA_mean_relative_w = 100;
stock_factory_MA_mean_relative_th = 0.22012885295396512;
stock_factory_MA_mean_relative_w = 37;
